jobs  (incl. supersource/sink ):	52
RESOURCES
- renewable                 : 4 R
- nonrenewable              : 4 N
- doubly constrained        : 0 D
************************************************************************
PRECEDENCE RELATIONS:
jobnr.    #modes  #successors   successors
1	1	16		2 3 4 5 6 7 9 10 11 12 14 15 18 21 24 26 
2	6	7		49 36 31 30 20 17 8 
3	6	6		48 46 37 28 16 13 
4	6	11		48 47 46 45 44 41 34 29 28 22 19 
5	6	9		51 50 46 41 34 28 25 23 19 
6	6	12		50 49 48 47 46 43 41 39 34 33 31 28 
7	6	10		50 49 47 45 44 43 37 36 33 28 
8	6	8		48 45 44 43 35 34 29 22 
9	6	8		49 47 45 44 43 37 33 22 
10	6	12		50 49 46 45 44 43 42 41 40 35 34 33 
11	6	6		50 48 46 41 28 19 
12	6	6		45 44 35 28 27 19 
13	6	9		45 44 43 41 40 36 35 34 29 
14	6	8		47 45 44 41 40 36 33 32 
15	6	7		47 44 42 41 40 33 27 
16	6	5		51 43 42 40 27 
17	6	6		44 42 41 40 39 33 
18	6	5		42 41 40 35 33 
19	6	4		42 40 33 30 
20	6	4		41 40 34 27 
21	6	5		43 42 40 39 32 
22	6	3		42 40 27 
23	6	4		44 39 33 32 
24	6	4		44 42 40 34 
25	6	2		45 27 
26	6	3		41 40 32 
27	6	2		39 32 
28	6	2		40 32 
29	6	2		33 32 
30	6	2		43 39 
31	6	2		40 38 
32	6	1		38 
33	6	1		38 
34	6	1		38 
35	6	1		39 
36	6	1		39 
37	6	1		41 
38	6	1		52 
39	6	1		52 
40	6	1		52 
41	6	1		52 
42	6	1		52 
43	6	1		52 
44	6	1		52 
45	6	1		52 
46	6	1		52 
47	6	1		52 
48	6	1		52 
49	6	1		52 
50	6	1		52 
51	6	1		52 
52	1	0		
************************************************************************
REQUESTS/DURATIONS
jobnr.	mode	dur	R1	R2	R3	R4	N1	N2	N3	N4	
------------------------------------------------------------------------
1	1	0	0	0	0	0	0	0	0	0	
2	1	1	4	3	4	4	25	3	24	23	
	2	2	3	3	4	4	25	2	22	17	
	3	4	3	3	4	4	22	2	21	14	
	4	14	3	3	3	4	21	2	21	14	
	5	28	3	3	3	4	19	1	20	6	
	6	29	3	3	2	4	18	1	19	4	
3	1	4	3	3	5	4	30	27	27	23	
	2	10	2	2	4	4	26	21	27	23	
	3	11	2	2	3	3	24	16	25	22	
	4	14	2	1	3	3	24	13	25	21	
	5	24	1	1	2	1	20	10	23	20	
	6	30	1	1	2	1	19	4	23	20	
4	1	11	1	2	5	4	17	13	19	18	
	2	15	1	2	5	4	15	12	18	18	
	3	16	1	2	5	4	13	10	15	13	
	4	18	1	2	5	4	12	6	14	10	
	5	25	1	2	5	4	10	4	12	6	
	6	27	1	2	5	4	9	3	10	6	
5	1	4	3	4	4	3	29	27	24	7	
	2	8	2	3	4	3	27	19	22	7	
	3	12	2	3	4	3	26	18	22	5	
	4	19	1	3	4	3	23	11	22	4	
	5	23	1	2	4	3	22	5	21	3	
	6	29	1	2	4	3	21	3	20	3	
6	1	2	4	4	1	4	25	25	14	30	
	2	3	3	3	1	3	22	23	12	26	
	3	8	3	3	1	3	19	22	10	25	
	4	13	2	3	1	3	15	20	10	21	
	5	15	2	3	1	3	9	18	7	20	
	6	21	1	3	1	3	5	18	6	18	
7	1	4	1	5	5	5	19	14	28	23	
	2	5	1	4	4	4	18	12	27	23	
	3	11	1	4	4	4	18	11	27	23	
	4	18	1	4	3	3	17	10	26	23	
	5	24	1	4	3	3	14	9	25	22	
	6	26	1	4	3	2	14	7	25	22	
8	1	17	3	5	4	3	17	10	27	29	
	2	18	3	4	3	3	16	10	25	29	
	3	19	3	4	3	3	15	10	23	29	
	4	20	2	4	3	2	15	10	21	28	
	5	26	2	3	3	1	14	9	19	28	
	6	30	2	3	3	1	14	9	18	27	
9	1	1	2	4	3	2	16	20	17	9	
	2	7	1	3	2	2	15	19	16	8	
	3	8	1	3	2	2	15	19	16	7	
	4	23	1	2	2	2	15	18	15	7	
	5	24	1	2	1	2	15	18	15	7	
	6	28	1	2	1	2	15	18	15	6	
10	1	3	2	4	4	4	14	9	29	11	
	2	13	2	4	4	4	12	9	26	10	
	3	16	2	4	3	3	10	9	21	9	
	4	20	2	4	3	3	10	8	19	8	
	5	21	2	4	3	2	7	7	16	7	
	6	27	2	4	2	1	7	7	14	6	
11	1	5	3	3	3	4	18	9	16	18	
	2	14	3	2	3	3	14	9	15	15	
	3	22	3	2	3	3	13	9	15	14	
	4	23	3	2	3	2	11	9	15	12	
	5	24	3	2	3	2	9	9	15	8	
	6	30	3	2	3	2	5	9	15	8	
12	1	6	5	4	2	2	16	28	25	26	
	2	11	3	4	2	2	15	25	22	25	
	3	12	3	4	2	2	15	20	17	25	
	4	13	2	3	2	2	15	18	14	25	
	5	20	2	3	2	2	14	14	8	25	
	6	28	1	2	2	2	14	11	5	25	
13	1	1	3	5	3	2	19	19	24	24	
	2	6	3	4	3	1	19	18	22	21	
	3	8	3	4	3	1	19	18	20	19	
	4	17	3	4	3	1	18	18	18	19	
	5	22	3	4	3	1	17	18	17	15	
	6	27	3	4	3	1	17	18	14	15	
14	1	2	4	5	4	4	13	21	10	25	
	2	3	3	4	4	4	11	19	10	21	
	3	8	3	4	4	4	9	18	9	17	
	4	12	3	4	4	3	8	16	7	14	
	5	14	2	3	4	2	7	14	7	11	
	6	21	2	3	4	2	5	14	5	10	
15	1	1	4	3	2	5	30	21	19	21	
	2	9	4	3	2	4	24	18	16	20	
	3	18	4	3	2	4	23	16	14	19	
	4	21	4	3	2	3	18	14	12	19	
	5	24	4	3	2	2	16	12	8	17	
	6	29	4	3	2	2	14	10	5	17	
16	1	1	3	3	4	4	21	24	28	25	
	2	4	2	3	4	3	21	23	27	22	
	3	18	2	3	3	3	18	21	26	20	
	4	22	2	3	3	2	17	20	25	20	
	5	24	2	3	3	2	16	20	24	18	
	6	27	2	3	2	2	13	18	24	16	
17	1	2	2	4	4	1	29	11	15	21	
	2	11	2	3	4	1	22	8	12	20	
	3	12	2	2	4	1	16	7	10	20	
	4	20	2	2	4	1	13	5	9	18	
	5	21	2	1	4	1	9	5	8	18	
	6	26	2	1	4	1	5	3	6	16	
18	1	17	5	4	4	5	27	28	6	17	
	2	19	5	4	4	4	27	21	6	15	
	3	20	5	4	4	4	27	19	6	11	
	4	21	5	4	4	4	26	15	6	10	
	5	22	5	4	4	3	25	13	6	7	
	6	28	5	4	4	3	25	12	6	7	
19	1	12	4	2	3	4	22	24	25	7	
	2	16	4	2	3	4	21	21	23	6	
	3	24	4	2	2	3	19	18	20	6	
	4	25	3	2	2	3	16	14	19	6	
	5	27	3	2	1	2	15	11	15	4	
	6	28	3	2	1	2	13	4	10	4	
20	1	2	3	5	3	3	16	13	14	25	
	2	15	3	3	3	3	16	12	14	22	
	3	20	3	3	3	3	14	11	11	20	
	4	23	2	2	3	3	14	9	6	19	
	5	24	2	2	3	2	13	6	6	18	
	6	26	2	1	3	2	12	6	2	16	
21	1	7	3	5	2	5	20	27	15	29	
	2	19	3	4	2	4	16	24	15	25	
	3	20	3	4	2	4	13	19	12	23	
	4	26	2	4	2	4	11	18	12	20	
	5	27	2	4	2	3	6	15	10	18	
	6	28	2	4	2	3	3	10	8	14	
22	1	6	2	3	3	1	2	30	28	26	
	2	7	2	2	3	1	2	28	28	19	
	3	12	2	2	3	1	2	28	28	17	
	4	22	2	2	3	1	1	26	28	14	
	5	23	2	2	3	1	1	25	28	9	
	6	26	2	2	3	1	1	24	28	6	
23	1	4	5	5	4	4	23	26	16	27	
	2	16	4	4	3	4	23	26	14	26	
	3	18	3	4	3	4	23	25	14	22	
	4	23	2	4	3	3	23	23	14	14	
	5	24	1	4	3	3	23	22	12	13	
	6	27	1	4	3	3	23	21	12	8	
24	1	4	3	3	4	4	14	24	28	22	
	2	11	2	3	3	4	12	24	27	19	
	3	16	2	3	3	4	11	24	24	17	
	4	21	2	3	3	3	8	24	20	16	
	5	22	1	3	2	3	7	24	16	15	
	6	23	1	3	2	3	6	24	16	13	
25	1	3	4	2	5	4	12	29	21	17	
	2	6	4	2	4	4	10	21	21	17	
	3	10	4	2	4	4	9	21	16	17	
	4	15	4	2	4	3	6	18	14	16	
	5	16	4	2	3	2	4	14	11	16	
	6	17	4	2	3	2	3	9	10	15	
26	1	2	4	5	4	3	27	28	25	29	
	2	3	4	4	4	3	21	27	24	29	
	3	10	4	3	3	3	19	24	20	29	
	4	12	3	2	3	3	15	22	17	28	
	5	19	3	1	1	3	10	21	14	27	
	6	22	3	1	1	3	5	19	12	27	
27	1	2	1	2	2	3	19	15	22	13	
	2	4	1	1	2	3	15	15	19	12	
	3	6	1	1	2	2	15	11	16	12	
	4	8	1	1	1	2	8	8	12	11	
	5	13	1	1	1	1	6	6	11	10	
	6	19	1	1	1	1	3	1	7	10	
28	1	3	2	5	5	5	19	13	14	19	
	2	7	1	4	4	5	18	11	13	19	
	3	12	1	4	4	5	14	9	12	18	
	4	15	1	3	4	5	13	6	11	18	
	5	17	1	3	3	5	12	5	9	17	
	6	18	1	2	3	5	9	4	8	17	
29	1	2	3	2	3	3	25	19	27	7	
	2	5	3	2	3	3	23	15	19	6	
	3	9	3	2	3	3	22	15	18	4	
	4	16	3	2	3	3	22	12	14	4	
	5	17	3	2	2	3	21	8	6	2	
	6	22	3	2	2	3	19	6	5	1	
30	1	2	4	4	3	5	22	26	16	20	
	2	3	4	3	2	4	19	24	13	19	
	3	19	4	2	2	4	13	24	13	18	
	4	20	3	2	2	4	10	22	7	18	
	5	22	3	1	1	4	7	19	6	17	
	6	28	3	1	1	4	4	17	2	17	
31	1	2	3	3	5	4	14	21	9	25	
	2	14	3	3	4	4	13	20	8	18	
	3	16	3	3	4	3	12	20	8	18	
	4	20	2	3	4	3	12	19	8	14	
	5	25	2	2	4	2	10	19	8	5	
	6	26	2	2	4	2	10	19	8	3	
32	1	5	4	2	5	2	16	20	13	18	
	2	8	4	2	4	2	15	16	13	13	
	3	11	4	2	3	2	12	16	8	9	
	4	12	4	1	3	1	9	12	6	6	
	5	14	4	1	3	1	7	10	6	4	
	6	26	4	1	2	1	4	9	1	2	
33	1	10	4	2	1	5	16	8	16	27	
	2	12	4	2	1	4	13	8	16	25	
	3	13	4	2	1	3	10	8	15	25	
	4	18	4	2	1	3	7	8	14	24	
	5	25	3	2	1	2	5	8	14	23	
	6	26	3	2	1	2	3	8	13	22	
34	1	9	4	4	3	2	26	20	27	22	
	2	10	4	3	3	1	22	19	24	18	
	3	12	4	3	3	1	19	19	20	15	
	4	14	4	3	3	1	16	18	20	12	
	5	24	4	2	2	1	12	18	17	11	
	6	26	4	2	2	1	10	18	13	9	
35	1	5	5	2	2	4	19	25	26	28	
	2	8	4	2	2	4	19	22	20	27	
	3	9	4	2	2	4	17	18	17	26	
	4	10	4	2	2	3	14	14	13	26	
	5	11	4	2	1	2	11	11	11	24	
	6	12	4	2	1	2	8	7	10	24	
36	1	10	3	3	4	4	18	28	15	24	
	2	15	3	3	3	4	18	24	14	24	
	3	20	3	3	3	4	13	18	14	21	
	4	21	2	3	2	4	12	14	14	19	
	5	23	2	3	2	3	6	13	14	17	
	6	30	2	3	2	3	6	7	14	16	
37	1	11	4	2	1	2	24	12	26	27	
	2	12	4	2	1	1	23	11	24	23	
	3	19	4	2	1	1	22	8	24	19	
	4	22	3	2	1	1	22	7	19	14	
	5	25	2	1	1	1	20	3	17	11	
	6	29	2	1	1	1	20	1	16	8	
38	1	9	4	2	4	1	14	23	20	24	
	2	13	4	1	4	1	12	19	16	20	
	3	20	4	1	4	1	11	14	16	16	
	4	21	3	1	4	1	10	11	14	13	
	5	28	2	1	4	1	9	7	10	8	
	6	29	2	1	4	1	8	5	10	3	
39	1	2	2	3	2	5	5	28	21	23	
	2	6	2	2	2	5	4	27	20	19	
	3	11	2	2	2	5	3	26	19	19	
	4	14	2	2	2	5	3	25	18	14	
	5	18	2	1	1	5	2	21	17	13	
	6	27	2	1	1	5	2	20	16	10	
40	1	5	5	3	3	4	29	17	23	6	
	2	8	4	3	3	3	21	13	22	6	
	3	10	4	3	3	3	17	12	20	6	
	4	11	4	3	3	2	15	11	18	6	
	5	13	3	3	2	2	7	7	15	6	
	6	20	3	3	2	2	5	7	13	6	
41	1	2	2	4	3	5	20	2	29	20	
	2	3	2	4	2	3	17	1	26	16	
	3	8	2	4	2	3	14	1	22	14	
	4	15	2	3	2	3	10	1	19	13	
	5	25	2	3	1	2	7	1	17	12	
	6	26	2	3	1	1	4	1	13	9	
42	1	1	4	3	4	3	25	15	14	24	
	2	4	3	3	4	2	17	13	14	23	
	3	13	3	3	4	2	17	12	12	22	
	4	14	3	2	4	2	12	12	11	21	
	5	17	2	2	4	2	9	10	8	21	
	6	26	2	1	4	2	1	9	8	20	
43	1	2	3	4	4	2	21	13	16	21	
	2	8	2	3	4	1	20	12	15	18	
	3	9	2	3	3	1	18	12	15	16	
	4	18	2	3	3	1	18	11	15	14	
	5	24	2	3	1	1	16	10	14	12	
	6	28	2	3	1	1	15	10	14	11	
44	1	2	2	3	2	3	18	10	28	29	
	2	5	2	3	1	2	15	9	23	25	
	3	14	2	2	1	2	15	8	17	22	
	4	16	2	2	1	2	14	4	16	20	
	5	21	2	2	1	1	11	3	9	19	
	6	22	2	1	1	1	10	2	7	15	
45	1	11	1	1	4	4	26	27	25	21	
	2	12	1	1	3	4	25	23	22	17	
	3	15	1	1	3	4	23	21	21	14	
	4	20	1	1	3	4	23	18	19	12	
	5	29	1	1	2	4	22	15	18	10	
	6	30	1	1	1	4	21	12	18	6	
46	1	3	3	1	4	3	23	19	28	26	
	2	5	2	1	3	3	21	17	28	24	
	3	9	2	1	3	2	17	15	28	24	
	4	15	2	1	2	2	13	13	28	23	
	5	19	1	1	1	1	10	11	28	23	
	6	28	1	1	1	1	7	10	28	22	
47	1	5	3	4	4	4	30	26	14	22	
	2	8	3	3	4	4	22	21	14	18	
	3	9	2	3	4	3	22	17	11	16	
	4	10	2	2	3	3	15	12	11	13	
	5	28	2	2	2	1	11	5	9	12	
	6	30	1	2	2	1	9	3	8	9	
48	1	5	3	4	1	3	23	16	23	18	
	2	11	3	4	1	3	22	14	23	18	
	3	12	3	3	1	3	22	11	21	18	
	4	13	3	2	1	3	21	9	21	18	
	5	21	3	1	1	3	20	6	20	18	
	6	30	3	1	1	3	20	5	19	18	
49	1	4	1	4	3	3	11	14	7	28	
	2	5	1	3	2	2	9	14	7	26	
	3	9	1	2	2	2	8	14	7	25	
	4	12	1	2	1	2	7	14	6	23	
	5	21	1	1	1	1	6	14	5	22	
	6	23	1	1	1	1	6	14	5	20	
50	1	2	2	5	5	4	6	23	20	15	
	2	7	1	4	3	3	5	23	19	14	
	3	8	1	3	3	3	4	23	19	11	
	4	22	1	3	3	3	3	23	17	8	
	5	29	1	3	1	3	2	23	16	6	
	6	30	1	2	1	3	2	23	15	5	
51	1	7	4	4	3	4	26	14	29	28	
	2	8	4	4	3	3	25	11	25	23	
	3	13	4	4	3	3	25	11	22	20	
	4	21	4	4	3	3	25	7	19	14	
	5	26	4	4	2	3	25	5	14	6	
	6	28	4	4	2	3	25	5	11	4	
52	1	0	0	0	0	0	0	0	0	0	
************************************************************************

 RESOURCE AVAILABILITIES 
	R 1	R 2	R 3	R 4	N 1	N 2	N 3	N 4
	28	33	30	33	876	849	926	954

************************************************************************
